CMD:
./solvers/bin/cadical --plain --no-reduce -t 1600 ./data/cnfs//marlann_compute_cp_fail2-p0/marlann_compute_cp_fail2-p0.13.cnf

c --- [ banner ] -------------------------------------------------------------
c 
c CaDiCaL SAT Solver
c Copyright (c) 2016-2024
c A. Biere, M. Fleury, N. Froleyks, K. Fazekas, F. Pollitt, T. Faller
c JKU Linz, University of Freiburg, TU Wien
c 
c Version 2.1.3 5296d3d2a9bf48c154ab2acb5e44625776d821bf
c g++ (Gentoo 12.3.1_p20230526 p2) 12.3.1 20230526 -Wall -Wextra -O3 -DNDEBUG
c Sat Aug 9 07:26:21 PDT 2025 Linux cedar2.int.cedar.computecanada.ca 5.14.0-362.24.2.el9_3.x86_64 x86_64
c 
c --- [ limit ] --------------------------------------------------------------
c 
c setting time limit to 1600 seconds real time (due to '-t 1600')
c 
c --- [ parsing input ] ------------------------------------------------------
c 
c reading DIMACS file from './data/cnfs//marlann_compute_cp_fail2-p0/marlann_compute_cp_fail2-p0.13.cnf'
c opening file to read './data/cnfs//marlann_compute_cp_fail2-p0/marlann_compute_cp_fail2-p0.13.cnf'
c found 'p cnf 56732 153568' header
c parsed 153568 clauses in 0.02 seconds process time
c 
c --- [ options ] ------------------------------------------------------------
c 
c   --compact=false                (different from default 'true')
c   --decompose=false              (different from default 'true')
c   --deduplicate=false            (different from default 'true')
c   --elim=false                   (different from default 'true')
c   --probe=false                  (different from default 'true')
c   --reduce=false                 (different from default 'true')
c   --subsume=false                (different from default 'true')
c   --ternary=false                (different from default 'true')
c   --transred=false               (different from default 'true')
c   --vivify=false                 (different from default 'true')
c 
c --- [ solving ] ------------------------------------------------------------
c 
c time measured in process time since initialization
c 
c  seconds  reductions  redundant  irredundant
c         MB    restarts       trail       variables
c          level   conflicts       glue         remaining
c 
c *  0.03 28  0 0   0    0    0  0% 0 151137 54858 97%
c {  0.03 29  0 0   0    0    0  0% 0 151137 54858 97%
c i  0.03 29 326 0   1   59   24 13% 13 151137 54854 97%
c i  0.04 29 174 0   1   89   41 10% 12 151137 54853 97%
c i  0.04 29 159 0   1   96   44  9% 11 151137 54850 97%
c i  0.04 29 149 0   1  101   47  9% 11 151137 54849 97%
c i  0.04 29 123 0   1  120   58  8% 10 151137 54848 97%
c i  0.04 29 117 0   1  125   59  8% 10 151137 54845 97%
c i  0.04 29 112 0   1  131   62  8% 10 151137 54844 97%
c i  0.04 29 97 0   1  151   74  7% 10 151137 54843 97%
c i  0.04 29 93 0   1  156   75  7% 10 151137 54840 97%
c i  0.04 29 90 0   1  162   78  7% 10 151137 54839 97%
c i  0.04 29 80 0   1  182   90  7% 9 151137 54838 97%
c i  0.04 29 78 0   1  187   91  6% 9 151137 54835 97%
c i  0.04 29 76 0   1  193   94  6% 9 151137 54834 97%
c i  0.04 29 69 0   1  213  106  6% 8 151137 54833 97%
c i  0.04 29 67 0   1  218  107  6% 8 151137 54830 97%
c i  0.04 29 65 0   1  224  110  6% 8 151137 54829 97%
c i  0.04 29 60 0   1  244  122  6% 8 151137 54828 97%
c i  0.04 29 59 0   1  249  123  6% 7 151137 54825 97%
c 
c  seconds  reductions  redundant  irredundant
c         MB    restarts       trail       variables
c          level   conflicts       glue         remaining
c 
c i  0.04 29 57 0   1  255  126  6% 7 151137 54824 97%
c i  0.04 29 53 0   1  275  138  5% 7 151137 54823 97%
c i  0.04 29 52 0   1  280  139  5% 7 151137 54815 97%
c }  0.04 29 51 0   1  286  143  5% 7 151137 54706 96%
c 0  0.04 29 51 0   1  286  143  5% 7 151137 54706 96%
c 
c --- [ result ] -------------------------------------------------------------
c 
s UNSATISFIABLE
c 
c --- [ run-time profiling ] -------------------------------------------------
c 
c process time taken by individual solving procedures
c (percentage relative to process time for solving)
c 
c         0.02  218.91% parse
c         0.01   98.93% search
c         0.01   65.79% lucky
c         0.00   33.04% unstable
c         0.00    0.00% simplify
c   =================================
c         0.01   30.88% solve
c 
c last line shows process time for solving
c (percentage relative to total process time)
c 
c --- [ statistics ] ---------------------------------------------------------
c 
c chronological:               121        42.31 %  of conflicts
c conflicts:                   286     25356.86    per second
c decisions:                   952     84404.65    per second
c fixed:                      1532         2.70 %  of all variables
c learned:                     255        89.16 %  per conflict
c learned_lits:               3967       100.00 %  learned literals
c minimized:                     0         0.00 %  learned literals
c shrunken:                   1959        49.38 %  learned literals
c minishrunken:                  0         0.00 %  learned literals
c otfs:                          0         0.00 %  of conflict
c propagations:              71765         6.36 M  per second
c restarts:                      1       286.00    interval
c subsumed:                     83         0.05 %  of all clauses
c 
c seconds are measured in process time for solving
c 
c --- [ resources ] ----------------------------------------------------------
c 
c total process time since initialization:         0.04    seconds
c total real time since initialization:            0.04    seconds
c maximum resident set size of process:           29.23    MB
c 
c --- [ shutting down ] ------------------------------------------------------
c 
c exit 20
